(set-info :smt-lib-version 2.6)
(set-logic QF_NRA)
(set-info :source |
These benchmarks used in the paper:

  Dejan Jovanovic and Leonardo de Moura.  Solving Non-Linear Arithmetic.
  In IJCAR 2012, published as LNCS volume 7364, pp. 339--354.

The meti-tarski benchmarks are proof obligations extracted from the
Meti-Tarski project, see:

  B. Akbarpour and L. C. Paulson. MetiTarski: An automatic theorem prover
  for real-valued special functions. Journal of Automated Reasoning,
  44(3):175-205, 2010.

Submitted by Dejan Jovanovic for SMT-LIB.


|)
(set-info :category "industrial")
(set-info :status unsat)
(declare-fun skoX () Real)
(declare-fun skoY () Real)
(declare-fun pi () Real)
(assert (let ((?v_0 (* skoY skoY))) (and (<= pi (/ 542038508653702546896624539949334927426922000109643764353707923238298996227330525297976868873728 963175758274704302623500825683126850919390382695778691926168092409162768139361987575146718290525)) (and (= ?v_0 (+ 277555600 (* (/ 265 128) (* (/ 265 128) (+ 15328072984 (* (/ 265 128) (* (/ 265 128) (+ 129098541721 (* (/ 265 128) (* (/ 265 128) (+ 21404723599 (* (/ 265 128) (* (/ 265 128) (+ 1024027285 (* (/ 265 128) (* (/ 265 128) 15132100)))))))))))))))) (and (= ?v_0 (+ 277555600 (* skoX (* skoX (+ 15328072984 (* skoX (* skoX (+ 129098541721 (* skoX (* skoX (+ 21404723599 (* skoX (* skoX (+ 1024027285 (* skoX (* skoX 15132100)))))))))))))))) (and (not (<= pi (/ 15707963 5000000))) (and (not (<= (/ 31415927 10000000) pi)) (<= 0 skoY))))))))
(check-sat)
(exit)
